306 5
10 10 10 10 10 

0 0 0 0 0 0 5 2 14 26 38 50 
0 0 0 0 0 0 2 3 4 
10 3 0 0 0 0 3 6 5 212 
10 5 0 0 0 0 2 8 6 
4 10 0 0 0 0 2 8 7 
8 10 0 0 0 0 1 7 
8 8 0 0 0 0 2 10 9 
6 10 0 0 0 0 2 10 9 
4 8 0 0 0 0 1 12 
8 6 0 0 0 0 1 11 
9 7 0 0 0 0 1 13 
4 8 0 0 0 0 1 13 
0 0 0 0 0 0 1 62 
0 0 0 0 0 0 5 15 17 18 21 158 
3 0 0 0 0 1 1 16 
9 0 0 0 0 7 3 24 23 19 
1 0 0 0 0 9 2 24 19 
7 0 0 0 0 7 2 23 19 
3 0 0 0 0 7 1 20 
4 0 0 0 0 9 1 22 
1 0 0 0 0 9 1 23 
1 0 0 0 0 6 1 25 
6 0 0 0 0 10 1 25 
3 0 0 0 0 10 1 25 
0 0 0 0 0 0 1 62 
0 0 0 0 0 0 4 27 31 36 284 
4 4 0 0 0 0 2 35 28 
7 4 0 0 0 0 2 33 29 
4 10 0 0 0 0 2 34 30 
9 8 0 0 0 0 1 32 
10 7 0 0 0 0 1 33 
4 7 0 0 0 0 1 37 
2 10 0 0 0 0 1 37 
1 10 0 0 0 0 1 37 
5 8 0 0 0 0 1 37 
6 7 0 0 0 0 1 37 
0 0 0 0 0 0 1 62 
0 0 0 0 0 0 3 39 40 42 
4 0 0 0 2 0 2 43 41 
8 0 0 0 7 0 2 43 41 
5 0 0 0 9 0 2 45 44 
8 0 0 0 10 0 2 45 44 
2 0 0 0 10 0 1 44 
5 0 0 0 5 0 2 47 46 
1 0 0 0 4 0 3 47 46 155 
2 0 0 0 8 0 1 48 
1 0 0 0 10 0 1 48 
2 0 0 0 10 0 1 49 
0 0 0 0 0 0 1 62 
0 0 0 0 0 0 5 51 53 54 60 142 
1 0 0 0 0 3 1 52 
10 0 0 0 0 10 1 55 
2 0 0 0 0 9 1 55 
8 0 0 0 0 8 2 59 58 
1 0 0 0 0 4 1 56 
10 0 0 0 0 4 1 57 
8 0 0 0 0 10 1 61 
5 0 0 0 0 7 1 61 
8 0 0 0 0 10 1 61 
7 0 0 0 0 10 1 61 
0 0 0 0 0 0 1 62 
0 0 0 0 0 0 5 63 75 87 99 111 
0 0 0 0 0 0 1 64 
2 0 1 0 0 0 3 69 68 65 
5 0 10 0 0 0 3 73 70 66 
4 0 9 0 0 0 2 72 67 
7 0 9 0 0 0 1 71 
10 0 8 0 0 0 1 70 
2 0 7 0 0 0 1 70 
1 0 10 0 0 0 1 74 
5 0 4 0 0 0 1 74 
10 0 9 0 0 0 2 74 88 
9 0 8 0 0 0 1 74 
0 0 0 0 0 0 1 123 
0 0 0 0 0 0 3 76 84 85 
3 1 0 0 0 0 3 80 77 290 
3 10 0 0 0 0 2 83 78 
7 9 0 0 0 0 1 79 
1 7 0 0 0 0 1 81 
7 5 0 0 0 0 1 82 
6 8 0 0 0 0 1 86 
6 9 0 0 0 0 1 86 
10 6 0 0 0 0 1 86 
8 10 0 0 0 0 1 86 
10 10 0 0 0 0 1 86 
0 0 0 0 0 0 1 123 
0 0 0 0 0 0 3 88 89 91 
3 0 0 0 0 2 3 97 93 90 
9 0 0 0 0 10 2 97 90 
8 0 0 0 0 10 2 96 92 
5 0 0 0 0 4 1 93 
7 0 0 0 0 6 1 94 
9 0 0 0 0 10 1 94 
10 0 0 0 0 7 2 95 119 
3 0 0 0 0 6 1 98 
6 0 0 0 0 10 1 98 
6 0 0 0 0 10 1 98 
0 0 0 0 0 0 1 123 
0 0 0 0 0 0 3 100 108 109 
2 0 0 0 0 10 2 107 101 
1 0 0 0 0 8 2 106 102 
2 0 0 0 0 3 2 105 103 
6 0 0 0 0 7 1 104 
7 0 0 0 0 10 2 110 119 
1 0 0 0 0 7 1 110 
2 0 0 0 0 10 1 110 
9 0 0 0 0 3 1 110 
3 0 0 0 0 10 1 110 
9 0 0 0 0 7 1 110 
0 0 0 0 0 0 1 123 
0 0 0 0 0 0 2 112 114 
8 0 0 1 0 0 2 118 113 
1 0 0 5 0 0 3 121 116 115 
3 0 0 10 0 0 3 121 116 115 
6 0 0 10 0 0 2 120 119 
7 0 0 9 0 0 1 117 
6 0 0 10 0 0 1 119 
8 0 0 5 0 0 2 120 170 
8 0 0 7 0 0 1 122 
6 0 0 8 0 0 1 122 
10 0 0 10 0 0 1 122 
0 0 0 0 0 0 1 123 
0 0 0 0 0 0 5 124 136 148 160 172 
0 0 0 0 0 0 3 125 129 131 
1 0 0 0 0 2 2 128 126 
2 0 0 0 0 8 1 127 
1 0 0 0 0 8 4 134 133 130 275 
10 0 0 0 0 9 3 134 133 130 
10 0 0 0 0 10 2 133 132 
6 0 0 0 0 7 1 132 
10 0 0 0 0 7 1 132 
1 0 0 0 0 7 1 135 
8 0 0 0 0 10 1 135 
10 0 0 0 0 7 1 135 
0 0 0 0 0 0 1 184 
0 0 0 0 0 0 3 137 138 141 
3 0 0 0 0 1 2 143 139 
3 0 0 0 0 10 3 146 145 140 
1 0 0 0 0 9 3 145 140 289 
7 0 0 0 0 8 1 142 
3 0 0 0 0 6 1 142 
1 0 0 0 0 9 1 144 
9 0 0 0 0 8 1 144 
1 0 0 0 0 8 1 147 
6 0 0 0 0 7 1 147 
5 0 0 0 0 9 1 147 
0 0 0 0 0 0 1 184 
0 0 0 0 0 0 3 149 151 153 
9 0 3 0 0 0 2 152 150 
6 0 6 0 0 0 2 157 154 
9 0 10 0 0 0 2 158 155 
6 0 10 0 0 0 1 154 
1 0 10 0 0 0 1 154 
1 0 5 0 0 0 1 155 
2 0 4 0 0 0 1 156 
4 0 8 0 0 0 1 159 
3 0 9 0 0 0 1 159 
9 0 10 0 0 0 1 159 
0 0 0 0 0 0 1 184 
0 0 0 0 0 0 1 161 
4 4 0 0 0 0 3 166 163 162 
5 6 0 0 0 0 2 165 164 
10 8 0 0 0 0 1 164 
10 8 0 0 0 0 3 170 168 167 
2 10 0 0 0 0 2 168 167 
2 10 0 0 0 0 2 170 168 
7 10 0 0 0 0 1 169 
3 5 0 0 0 0 1 171 
5 6 0 0 0 0 1 171 
8 8 0 0 0 0 1 171 
0 0 0 0 0 0 1 184 
0 0 0 0 0 0 4 173 174 175 177 
3 0 0 0 0 1 2 180 176 
7 0 0 0 0 9 1 176 
1 0 0 0 0 7 2 182 179 
8 0 0 0 0 6 1 178 
1 0 0 0 0 10 1 178 
10 0 0 0 0 9 1 179 
7 0 0 0 0 7 1 181 
4 0 0 0 0 10 1 181 
9 0 0 0 0 10 1 183 
5 0 0 0 0 6 1 183 
0 0 0 0 0 0 1 184 
0 0 0 0 0 0 5 185 197 209 221 233 
0 0 0 0 0 0 3 186 190 192 
9 0 0 0 3 0 2 189 187 
2 0 0 0 8 0 2 195 188 
9 0 0 0 7 0 2 194 191 
3 0 0 0 8 0 2 195 191 
5 0 0 0 7 0 2 194 191 
7 0 0 0 10 0 1 193 
3 0 0 0 10 0 1 193 
4 0 0 0 8 0 1 196 
1 0 0 0 4 0 1 196 
5 0 0 0 10 0 1 196 
0 0 0 0 0 0 1 245 
0 0 0 0 0 0 2 198 200 
1 4 0 0 0 0 2 202 199 
7 9 0 0 0 0 3 205 203 201 
10 10 0 0 0 0 3 205 204 203 
6 4 0 0 0 0 2 207 204 
4 6 0 0 0 0 1 203 
1 10 0 0 0 0 2 207 206 
9 8 0 0 0 0 1 206 
1 8 0 0 0 0 1 206 
7 10 0 0 0 0 1 208 
10 6 0 0 0 0 1 208 
0 0 0 0 0 0 1 245 
0 0 0 0 0 0 2 210 212 
4 0 3 0 0 0 3 216 213 211 
1 0 10 0 0 0 3 219 218 214 
4 0 8 0 0 0 2 218 214 
2 0 7 0 0 0 1 214 
7 0 7 0 0 0 1 215 
6 0 8 0 0 0 1 217 
7 0 8 0 0 0 1 217 
8 0 9 0 0 0 1 220 
10 0 5 0 0 0 1 220 
8 0 10 0 0 0 1 220 
0 0 0 0 0 0 1 245 
0 0 0 0 0 0 4 222 223 225 227 
5 0 0 3 0 0 2 231 224 
6 0 0 8 0 0 2 231 226 
10 0 0 8 0 0 1 226 
10 0 0 4 0 0 1 226 
10 0 0 7 0 0 2 230 228 
8 0 0 8 0 0 2 230 229 
3 0 0 7 0 0 1 229 
8 0 0 10 0 0 1 232 
9 0 0 10 0 0 1 232 
1 0 0 10 0 0 1 232 
0 0 0 0 0 0 1 245 
0 0 0 0 0 0 2 234 236 
8 0 0 5 0 0 2 237 235 
4 0 0 9 0 0 3 243 239 238 
4 0 0 6 0 0 2 243 237 
5 0 0 6 0 0 2 242 240 
7 0 0 6 0 0 2 242 240 
9 0 0 10 0 0 2 242 241 
7 0 0 4 0 0 1 241 
1 0 0 9 0 0 1 244 
9 0 0 10 0 0 1 244 
7 0 0 10 0 0 1 244 
0 0 0 0 0 0 1 245 
0 0 0 0 0 0 5 246 258 270 282 294 
0 0 0 0 0 0 2 247 249 
2 3 0 0 0 0 2 250 248 
3 7 0 0 0 0 3 256 252 251 
1 10 0 0 0 0 2 256 250 
8 9 0 0 0 0 2 255 252 
1 7 0 0 0 0 2 255 254 
5 6 0 0 0 0 1 253 
3 10 0 0 0 0 1 254 
2 9 0 0 0 0 1 257 
1 7 0 0 0 0 1 257 
8 7 0 0 0 0 1 257 
0 0 0 0 0 0 1 306 
0 0 0 0 0 0 4 259 260 261 262 
7 0 1 0 0 0 2 265 263 
3 0 10 0 0 0 2 267 263 
5 0 10 0 0 0 2 267 264 
4 0 5 0 0 0 2 267 266 
2 0 8 0 0 0 1 264 
4 0 4 0 0 0 1 266 
6 0 8 0 0 0 1 267 
10 0 10 0 0 0 1 268 
1 0 10 0 0 0 1 268 
9 0 9 0 0 0 1 269 
0 0 0 0 0 0 1 306 
0 0 0 0 0 0 2 271 274 
7 0 0 0 1 0 3 276 273 272 
3 0 0 0 10 0 2 278 275 
3 0 0 0 7 0 2 280 277 
10 0 0 0 6 0 1 275 
10 0 0 0 7 0 1 277 
7 0 0 0 9 0 1 277 
2 0 0 0 5 0 1 279 
4 0 0 0 10 0 1 280 
5 0 0 0 10 0 1 281 
3 0 0 0 10 0 1 281 
0 0 0 0 0 0 1 306 
0 0 0 0 0 0 3 283 285 286 
2 0 0 0 0 7 2 292 284 
10 0 0 0 0 7 3 291 289 287 
1 0 0 0 0 4 3 292 291 290 
7 0 0 0 0 5 2 291 290 
3 0 0 0 0 10 1 288 
9 0 0 0 0 5 1 290 
4 0 0 0 0 10 1 290 
7 0 0 0 0 7 1 293 
7 0 0 0 0 10 1 293 
3 0 0 0 0 10 1 293 
0 0 0 0 0 0 1 306 
0 0 0 0 0 0 5 295 296 297 300 304 
2 0 2 0 0 0 2 303 298 
9 0 6 0 0 0 1 298 
1 0 7 0 0 0 1 298 
10 0 7 0 0 0 1 299 
6 0 10 0 0 0 1 301 
1 0 10 0 0 0 1 301 
3 0 10 0 0 0 1 302 
2 0 10 0 0 0 1 305 
10 0 7 0 0 0 1 305 
8 0 6 0 0 0 1 305 
0 0 0 0 0 0 1 306 
0 0 0 0 0 0 0 
